50, 11382
889, 939
400, 414
589, 606
860, 794
229, 238
516, 429
584, 504
948, 1020
33, 24
69, 1
321, 364
826, 763
844, 804
136, 151
920, 1008
528, 432
968, 998
935, 842
93, 150
975, 948
479, 396
157, 135
466, 496
75, 24
749, 725
545, 601
110, 174
227, 273
507, 501
779, 820
276, 205
107, 84
355, 317
70, 23
336, 244
872, 782
184, 280
302, 277
774, 738
204, 235
115, 160
249, 329
611, 694
712, 623
677, 626
65, 65
284, 245
116, 127
561, 509
366, 446
